# Objective value = 40
WA1n 0
WA1p 0
WA2n 1
WA2p 0
WB1n 0
WB1p 0
WB2n 0
WB2p 1
WC1n 0
WC1p 1
WD1n 0
WD1p 1
WE1n 0
WE1p 1
WF1n 3
WF1p 0
WF2n 1
WF2p 0
WG1n 0
WG1p 3
WG2n 0
WG2p 1
WH1n 8
WH1p 0
WI1n 0
WI1p 11
WI2n 0
WI2p 1
WT1n 0
WT1p 0
WT2n 1
WT2p 0
5 7
a 0
b 0
c 0
d 1
e 1
f 1
g 1
h 0
i 0
j 1
k 1
l 0
m 1
n 1
o 0
p 0
